# Solution for model GasLib-40
# Objective value = 1.1872869429714925e+01
loadshed[innode_1] 0
loadshed[innode_2] 0
loadshed[innode_3] 0
loadshed[innode_4] 0
loadshed[innode_5] 0
loadshed[innode_6] 0
loadshed[innode_7] 0
loadshed[innode_8] 0
loadshed[source_1] -3.0880330920259613e-01
loadshed[source_2] 0.0838031627011
loadshed[source_3] 3.0010197816757256e-01
loadshed[sink_1] 0
loadshed[sink_2] 0
loadshed[sink_3] 0
loadshed[sink_4] 0
loadshed[sink_5] 0
loadshed[sink_6] 0
loadshed[sink_7] 0
loadshed[sink_8] 0
loadshed[sink_9] 0
loadshed[sink_10] 0
loadshed[sink_11] 0
loadshed[sink_12] 7.2598437277237748e-01
loadshed[sink_13] 0
loadshed[sink_14] 0
loadshed[sink_15] 0
loadshed[sink_16] 0
loadshed[sink_17] 0
loadshed[sink_18] 0
loadshed[sink_19] 0
loadshed[sink_20] 0
loadshed[sink_21] 0
loadshed[sink_22] 0
loadshed[sink_23] 0
loadshed[sink_24] 0
loadshed[sink_25] 0
loadshed[sink_26] 0
loadshed[sink_27] 0
loadshed[sink_28] 0
loadshed[sink_29] 0
flow[source_1,sink_3] 2.0690907870831319e+02
flow[innode_1,sink_16] 1.6354166666666970e+01
flow[innode_6,sink_13] 3.8320939790612147e+00
flow[sink_13,sink_14] -1.2522072687605453e+01
flow[sink_14,sink_10] -2.8876239354272229e+01
flow[sink_25,sink_26] 1.7470850074483337e+02
flow[sink_26,sink_9] 1.3531463057028540e+02
flow[sink_9,sink_18] 1.1896046390361873e+02
flow[sink_26,sink_4] 2.3039703507881352e+01
flow[sink_4,sink_20] -1.6801318793565446e+01
flow[sink_18,sink_6] 1.0260629723695206e+02
flow[sink_25,innode_8] -1.7420074537497680e+02
flow[sink_6,sink_7] 5.3543797236951747e+01
flow[sink_6,sink_22] 3.2708333333333641e+01
flow[sink_7,sink_24] 3.7189630570285075e+01
flow[sink_22,sink_1] 1.6354166666666970e+01
flow[sink_24,sink_21] 2.0835463903618411e+01
flow[sink_21,sink_12] 4.4812972369517441e+00
flow[sink_7,sink_5] 0
flow[sink_5,sink_17] -1.6354166666667197e+01
flow[sink_17,sink_4] -2.3486855634780131e+01
flow[sink_17,sink_8] -9.2214776985537341e+00
flow[sink_3,sink_23] 16.3541666666697
flow[sink_8,sink_20] -2.5575644365220402e+01
flow[sink_25,sink_20] 5.8731129825452513e+01
flow[sink_25,sink_15] -7.9425145841036681e+01
flow[sink_15,sink_29] 0
flow[sink_29,sink_28] 1.6354166666667879e+01
flow[sink_29,sink_2] 1.1213347917437002e+02
flow[sink_2,sink_15] 9.5779312507703352e+01
flow[sink_29,innode_7] -1.4484181250770456e+02
flow[innode_4,sink_19] 4.2536628108007868e+01
flow[sink_19,innode_3] 7.7938739354272471e+01
flow[innode_4,innode_5] 6.8110444579597754e+01
flow[sink_27,innode_5] -6.8110444579597754e+01
flow[sink_27,sink_19] 5.1756277912931083e+01
flow[sink_10,sink_11] 3.2708333333333641e+01
flow[sink_10,innode_2] 0
flow[sink_10,innode_3] -7.7938739354272471e+01
flow[innode_6,sink_25] -3.8320939790612147e+00
flow[sink_11,innode_1] 1.6354166666666970e+01
flow[sink_19,innode_2] 0
flow[source_3,innode_4] 1.1064707268760563e+02
flow[source_2,innode_7] 1.4484181250770456e+02
flow[sink_3,innode_8] 1.7420074537497680e+02
pressure[innode_1] 7.4816231547343875e+01
pressure[innode_2] 7.4967932854947421e+01
pressure[innode_3] 7.9117396298703227e+01
pressure[innode_4] 81.01325
pressure[innode_5] 8.0966400044743281e+01
pressure[innode_6] 7.3600843657931264e+01
pressure[innode_7] 81.01325
pressure[innode_8] 8.0321631992011135e+01
pressure[source_1] 81.01325
pressure[source_2] 81.01325
pressure[source_3] 81.01325
pressure[sink_1] 4.4051981281103870e+01
pressure[sink_2] 74.2988313547738
pressure[sink_3] 8.0321631992011135e+01
pressure[sink_4] 5.8366899017678655e+01
pressure[sink_5] 5.6251041635475119e+01
pressure[sink_6] 4.6153058891491241e+01
pressure[sink_7] 4.5418030184523673e+01
pressure[sink_8] 5.7817259151206237e+01
pressure[sink_9] 5.3197296674005827e+01
pressure[sink_10] 7.4967932854947421e+01
pressure[sink_11] 7.4816231547343875e+01
pressure[sink_12] 1.0132500000000013e+00
pressure[sink_13] 73.5797179642271
pressure[sink_14] 73.6021272799463
pressure[sink_15] 7.3986133008856612e+01
pressure[sink_16] 73.7945817125262
pressure[sink_17] 5.7469308840829868e+01
pressure[sink_18] 4.8892952526812415e+01
pressure[sink_19] 7.9289982811398446e+01
pressure[sink_20] 5.9599521886243323e+01
pressure[sink_21] 2.6079408192605604e+00
pressure[sink_22] 4.5115750423458877e+01
pressure[sink_23] 8.0156913980351348e+01
pressure[sink_24] 2.8386742235384332e+00
pressure[sink_25] 7.3600843657931264e+01
pressure[sink_26] 6.1296226551085333e+01
pressure[sink_27] 8.0401209209301811e+01
pressure[sink_28] 7.6844016658950324e+01
pressure[sink_29] 77.1392989325675
interdiction[source_1,sink_3] 0
interdiction[innode_1,sink_16] 0
interdiction[innode_6,sink_13] 0
interdiction[sink_13,sink_14] 0
interdiction[sink_14,sink_10] 0
interdiction[sink_25,sink_26] 0
interdiction[sink_26,sink_9] 0
interdiction[sink_9,sink_18] 0
interdiction[sink_26,sink_4] 0
interdiction[sink_4,sink_20] 0
interdiction[sink_18,sink_6] 0
interdiction[sink_25,innode_8] 0
interdiction[sink_6,sink_7] 0
interdiction[sink_6,sink_22] 0
interdiction[sink_7,sink_24] 0
interdiction[sink_22,sink_1] 0
interdiction[sink_24,sink_21] 0
interdiction[sink_21,sink_12] 0
interdiction[sink_7,sink_5] 1
interdiction[sink_5,sink_17] 0
interdiction[sink_17,sink_4] 0
interdiction[sink_17,sink_8] 0
interdiction[sink_3,sink_23] 0
interdiction[sink_8,sink_20] 0
interdiction[sink_25,sink_20] 0
interdiction[sink_25,sink_15] 0
interdiction[sink_15,sink_29] 1
interdiction[sink_29,sink_28] 0
interdiction[sink_29,sink_2] 0
interdiction[sink_2,sink_15] 0
interdiction[sink_29,innode_7] 0
interdiction[innode_4,sink_19] 0
interdiction[sink_19,innode_3] 0
interdiction[innode_4,innode_5] 0
interdiction[sink_27,innode_5] 0
interdiction[sink_27,sink_19] 0
interdiction[sink_10,sink_11] 0
interdiction[sink_10,innode_2] 0
interdiction[sink_10,innode_3] 0
interdiction[innode_6,sink_25] 0
interdiction[sink_11,innode_1] 0
interdiction[sink_19,innode_2] 1
interdiction[source_3,innode_4] 0
interdiction[source_2,innode_7] 0
interdiction[sink_3,innode_8] 0
WCcheckFlow[source_1,sink_3] 39
WCcheckFlow[innode_1,sink_16] 1
WCcheckFlow[innode_6,sink_13] 13
WCcheckFlow[sink_13,sink_14] 12
WCcheckFlow[sink_14,sink_10] 11
WCcheckFlow[sink_25,sink_26] 15
WCcheckFlow[sink_26,sink_9] 9
WCcheckFlow[sink_9,sink_18] 8
WCcheckFlow[sink_26,sink_4] 5
WCcheckFlow[sink_4,sink_20] 1
WCcheckFlow[sink_18,sink_6] 7
WCcheckFlow[sink_25,innode_8] -36
WCcheckFlow[sink_6,sink_7] 4
WCcheckFlow[sink_6,sink_22] 2
WCcheckFlow[sink_7,sink_24] 3
WCcheckFlow[sink_22,sink_1] 1
WCcheckFlow[sink_24,sink_21] 2
WCcheckFlow[sink_21,sink_12] 1
WCcheckFlow[sink_7,sink_5] 0
WCcheckFlow[sink_5,sink_17] -1
WCcheckFlow[sink_17,sink_4] -3
WCcheckFlow[sink_17,sink_8] 1
WCcheckFlow[sink_3,sink_23] 1
WCcheckFlow[sink_8,sink_20] 0
WCcheckFlow[sink_25,sink_20] 0
WCcheckFlow[sink_25,sink_15] 6
WCcheckFlow[sink_15,sink_29] 0
WCcheckFlow[sink_29,sink_28] 1
WCcheckFlow[sink_29,sink_2] -4
WCcheckFlow[sink_2,sink_15] -5
WCcheckFlow[sink_29,innode_7] 2
WCcheckFlow[innode_4,sink_19] -4
WCcheckFlow[sink_19,innode_3] -5
WCcheckFlow[innode_4,innode_5] 2
WCcheckFlow[sink_27,innode_5] -1
WCcheckFlow[sink_27,sink_19] 0
WCcheckFlow[sink_10,sink_11] 3
WCcheckFlow[sink_10,innode_2] 1
WCcheckFlow[sink_10,innode_3] 6
WCcheckFlow[innode_6,sink_25] -14
WCcheckFlow[sink_11,innode_1] 2
WCcheckFlow[sink_19,innode_2] 0
WCcheckFlow[source_3,innode_4] -1
WCcheckFlow[source_2,innode_7] -1
WCcheckFlow[sink_3,innode_8] 37
